(set-option :produce-models true); benchmark generated from python API
(set-info :status unknown)
(declare-fun l_1_0_9 () Real)
(declare-fun l_1_0_8 () Real)
(declare-fun l_1_0_7 () Real)
(declare-fun l_1_0_6 () Real)
(declare-fun l_1_0_5 () Real)
(declare-fun l_1_0_4 () Real)
(declare-fun l_1_0_3 () Real)
(declare-fun l_1_0_2 () Real)
(declare-fun l_1_0_1 () Real)
(declare-fun _a_0_ () Real)
(declare-fun l_1_0_10 () Real)
(declare-fun _a_1_ () Real)
(declare-fun l_1_0_11 () Real)
(declare-fun l_1_1_8 () Real)
(declare-fun l_1_1_7 () Real)
(declare-fun l_1_1_6 () Real)
(declare-fun l_1_1_5 () Real)
(declare-fun l_1_1_2 () Real)
(declare-fun l_1_1_16 () Real)
(declare-fun l_1_1_15 () Real)
(declare-fun l_1_1_12 () Real)
(declare-fun l_1_1_3 () Real)
(declare-fun l_1_1_13 () Real)
(declare-fun l_1_1_11 () Real)
(declare-fun l_1_1_4 () Real)
(declare-fun l_1_1_17 () Real)
(declare-fun l_1_1_9 () Real)
(declare-fun l_1_1_14 () Real)
(declare-fun l_1_1_10 () Real)
(declare-fun l_1_1_1 () Real)
(declare-fun l_1_2_1 () Real)
(declare-fun l_1_2_2 () Real)
(declare-fun l_1_2_3 () Real)
(declare-fun l_1_2_4 () Real)
(declare-fun l_1_2_5 () Real)
(declare-fun l_1_2_6 () Real)
(declare-fun l_1_2_7 () Real)
(declare-fun l_1_2_8 () Real)
(declare-fun l_1_2_9 () Real)
(declare-fun l_1_2_10 () Real)
(declare-fun l_1_2_11 () Real)
(declare-fun l_1_2_12 () Real)
(declare-fun l_1_2_13 () Real)
(declare-fun l_1_2_14 () Real)
(declare-fun l_1_2_15 () Real)
(declare-fun l_1_2_17 () Real)
(assert
 (let ((?x332 (* l_1_0_9 l_1_0_9)))
 (let ((?x24 (* 3.0 l_1_0_5)))
 (let ((?x336 (* 3.0 l_1_0_3)))
 (let ((?x335 (- (- (- (- _a_0_ (* 3.0 l_1_0_1)) (* 9.0 l_1_0_2)) ?x336) l_1_0_4)))
 (= (- (- (- (- (- ?x335 ?x24) l_1_0_6) l_1_0_7) l_1_0_8) ?x332) 0.0))))))
(assert
 (let ((?x231 (* 2.0 l_1_0_5)))
 (let ((?x229 (* 2.0 l_1_0_3)))
 (let ((?x227 (* 12.0 l_1_0_2)))
 (let ((?x20 (- (- _a_1_ (* 2.0 l_1_0_1)) (* (* 2.0 l_1_0_10) l_1_0_9))))
 (= (- (- (- ?x20 ?x227) ?x229) ?x231) 0.0))))))
(assert
 (let ((?x142 (* 2.0 l_1_0_2)))
 (let ((?x143 (+ (- (- l_1_0_1 (* l_1_0_10 l_1_0_10)) (* l_1_0_11 l_1_0_11)) ?x142)))
 (= (- (+ (+ ?x143 l_1_0_3) l_1_0_5) 1.0) 0.0))))
(assert
 (= (* 4.0 l_1_0_2) 0.0))
(assert
 (= (- l_1_0_2) 0.0))
(assert
 (>= l_1_0_1 0.0))
(assert
 (>= l_1_0_2 0.0))
(assert
 (>= l_1_0_3 0.0))
(assert
 (>= l_1_0_4 0.0))
(assert
 (>= l_1_0_5 0.0))
(assert
 (>= l_1_0_6 0.0))
(assert
 (>= l_1_0_7 0.0))
(assert
 (>= l_1_0_8 0.0))
(assert
 (>= l_1_0_9 0.0))
(assert
 (>= l_1_0_11 0.0))
(assert
 (let ((?x256 (* (/ 3.0 2.0) l_1_1_7)))
 (let ((?x257 (* 21.0 l_1_1_6)))
 (let ((?x248 (* (/ 3.0 2.0) l_1_1_2)))
 (let ((?x135 (* (/ 3.0 2.0) l_1_1_12)))
 (let ((?x38 (* _a_1_ l_1_1_3)))
 (let ((?x35 (* _a_1_ l_1_1_13)))
 (let ((?x33 (* _a_1_ l_1_1_11)))
 (let ((?x118 (- (- (- (* (* (* (- 2.0) _a_0_) _a_1_) l_1_1_4) ?x33) ?x35) ?x38)))
 (let ((?x250 (- (+ (- (+ ?x118 ?x135) (* (* 2.0 l_1_1_15) l_1_1_16)) ?x248) (* l_1_1_5 (- (* (- (/ 3.0 2.0)) _a_0_) (* 7.0 _a_1_))))))
 (let ((?x189 (- (+ (- ?x250 ?x257) ?x256) (* l_1_1_8 (- (* (- (/ 3.0 2.0)) _a_0_) (* 7.0 _a_1_))))))
 (= (+ ?x189 7.0) 0.0))))))))))))
(assert
 (let ((?x45 (* (/ 47.0 4.0) l_1_1_6)))
 (let ((?x100 (* l_1_1_17 l_1_1_17)))
 (let ((?x68 (- (- (+ (- l_1_1_11 l_1_1_12) l_1_1_13) (* l_1_1_16 l_1_1_16)) ?x100)))
 (let ((?x54 (- (+ (- ?x68 l_1_1_2) l_1_1_3) (* l_1_1_4 (+ (* (- 2.0) _a_0_) (* _a_1_ _a_1_))))))
 (let ((?x44 (+ (- ?x54 (* l_1_1_5 (+ (- _a_0_ (* (/ 3.0 2.0) _a_1_)) 7.0))) ?x45)))
 (let ((?x29 (- (- ?x44 l_1_1_7) (* l_1_1_8 (+ (- _a_0_ (* (/ 3.0 2.0) _a_1_)) 7.0)))))
 (= (- ?x29 1.0) 0.0))))))))
(assert
 (let ((?x446 (* 7.0 l_1_1_7)))
 (let ((?x444 (* 49.0 l_1_1_6)))
 (let ((?x439 (* 7.0 l_1_1_2)))
 (let ((?x437 (* l_1_1_15 l_1_1_15)))
 (let ((?x434 (* 7.0 l_1_1_12)))
 (let ((?x425 (* _a_0_ l_1_1_3)))
 (let ((?x429 (+ (- (- (* (- _a_0_) l_1_1_11) (* _a_0_ l_1_1_13)) ?x425) (* (* 7.0 _a_0_) l_1_1_5))))
 (let ((?x433 (- (- (+ ?x429 (* (* 7.0 _a_0_) l_1_1_8)) l_1_1_1) l_1_1_10)))
 (let ((?x442 (- (+ (- (- (+ ?x433 ?x434) l_1_1_14) ?x437) ?x439) (* (* l_1_1_4 _a_0_) _a_0_))))
 (= (- (- (+ (- ?x442 ?x444) ?x446) l_1_1_9) 10.0) 0.0)))))))))))
(assert
 (let ((?x506 (* 3.0 l_1_1_6)))
 (let ((?x507 (+ (- (* (* 2.0 _a_1_) l_1_1_4) (* l_1_1_5 (+ _a_1_ (/ 3.0 2.0)))) ?x506)))
 (= (- ?x507 (* l_1_1_8 (+ _a_1_ (/ 3.0 2.0)))) 0.0))))
(assert
 (= (+ (- (+ (- l_1_1_4) l_1_1_5) l_1_1_6) l_1_1_8) 0.0))
(assert
 (>= l_1_1_1 0.0))
(assert
 (>= l_1_1_2 0.0))
(assert
 (>= l_1_1_3 0.0))
(assert
 (>= l_1_1_4 0.0))
(assert
 (>= l_1_1_5 0.0))
(assert
 (>= l_1_1_6 0.0))
(assert
 (>= l_1_1_7 0.0))
(assert
 (>= l_1_1_8 0.0))
(assert
 (>= l_1_1_9 0.0))
(assert
 (>= l_1_1_10 0.0))
(assert
 (>= l_1_1_11 0.0))
(assert
 (>= l_1_1_12 0.0))
(assert
 (>= l_1_1_13 0.0))
(assert
 (>= l_1_1_14 0.0))
(assert
 (>= l_1_1_15 0.0))
(assert
 (>= l_1_1_17 0.0))
(assert
 false)
(assert
 (>= l_1_2_1 0.0))
(assert
 (>= l_1_2_2 0.0))
(assert
 (>= l_1_2_3 0.0))
(assert
 (>= l_1_2_4 0.0))
(assert
 (>= l_1_2_5 0.0))
(assert
 (>= l_1_2_6 0.0))
(assert
 (>= l_1_2_7 0.0))
(assert
 (>= l_1_2_8 0.0))
(assert
 (>= l_1_2_9 0.0))
(assert
 (>= l_1_2_10 0.0))
(assert
 (>= l_1_2_11 0.0))
(assert
 (>= l_1_2_12 0.0))
(assert
 (>= l_1_2_13 0.0))
(assert
 (>= l_1_2_14 0.0))
(assert
 (>= l_1_2_15 0.0))
(assert
 (>= l_1_2_17 0.0))
(check-sat)
(get-model)